[[89, 90, 99, 98, 97, 96, 88, 87, 86, 85, 95, 94, 93], [92, 91, 82, 83, 84, 73, 74, 75, 76, 77, 68, 67, 66, 65], [59, 58, 49, 57, 56, 64, 55, 46, 47, 38, 48, 39, 40, 50, 41], [32, 31, 30, 29, 37, 28, 19, 20, 21, 22, 13, 12, 11], [10, 2, 3, 4, 14, 5, 6, 7, 8, 9, 18, 17, 16, 15], [23, 24, 25, 26, 27, 35, 36, 44, 34, 33, 43, 42], [51, 60, 52, 53, 45, 54, 63, 62, 61, 72, 71, 70, 69, 78, 80, 81, 79]]